80 8
91 91
1 1
39 39
39 39
61 61
66 66
95 95
79 79
47 47
30 30
76 76
1 1
72 72
66 66
17 17
71 71
22 22
26 26
71 71
38 38
71 71
65 65
76 76
48 48
4 4
48 48
85 85
74 74
40 40
37 37
60 60
98 98
76 76
89 89
14 14
62 62
19 19
10 10
4 4
22 22
95 95
4 4
55 55
59 59
2 2
48 48
93 93
38 38
33 33
77 77
63 63
88 88
36 36
95 95
50 50
40 40
63 63
21 21
57 57
87 87
59 59
7 7
56 56
54 54
6 6
57 57
40 40
100 100
72 72
65 65
66 66
57 57
36 36
35 35
19 19
9 9
69 69
34 34
55 55
2 2
511 603
392 481
507 603
674 761
414 476
518 624
507 577
503 589
